22 4
56 32 60 90 48 19 14 41 54 27 91 80 23 40 13 23 48 41 97 60 64 86
49 13 37 75 43 62 24 91 79 54 34 51 14 36 33 95 61 24 77 74 87 10
30 97 34 18 59 40 68 76 57 82 12 72 67 34 91 30 86 90 21 56 83 36
64 28 38 62 30 35 71 98 20 78 53 19 59 93 59 60 98 40 62 65 61 86
